
Gurobi 11.0.3 (win64) logging started Tue Sep  3 15:56:36 2024

Set parameter LogFile to value "C:\Users\ealvarezq\Desktop\D.Representative_days_based_on_RES_and_Demand\IEEE118_mod2_ByStages_nc60/openStarNet_IEEE118_mod2_ByStages_nc60.log"
Set parameter Method to value 2
Set parameter MIPFocus to value 1
Set parameter Presolve to value 2
Set parameter RINS to value 100
Set parameter MIPGap to value 0.01
Set parameter Threads to value 24
Set parameter TimeLimit to value 259200
Set parameter IterationLimit to value 760000000
Gurobi Optimizer version 11.0.3 build v11.0.3rc0 (win64 - Windows Server 2019.0 (17763.2))

CPU model: AMD Ryzen Threadripper PRO 3955WX 16-Cores, instruction set [SSE2|AVX|AVX2]
Thread count: 16 physical cores, 32 logical processors, using up to 24 threads

Optimize a model with 85263 rows, 63131 columns and 219778 nonzeros
Model fingerprint: 0x480014ea
Variable types: 63097 continuous, 34 integer (34 binary)
Coefficient statistics:
  Matrix range     [2e-03, 9e+03]
  Objective range  [1e+00, 1e+00]
  Bounds range     [1e-04, 3e+00]
  RHS range        [1e-04, 3e+00]
Presolve removed 57706 rows and 29280 columns
Presolve time: 0.40s
Presolved: 27557 rows, 33851 columns, 100690 nonzeros
Variable types: 33817 continuous, 34 integer (34 binary)
Root relaxation presolved: 27557 rows, 33851 columns, 100690 nonzeros

Root barrier log...

Ordering time: 0.02s

Barrier statistics:
 Dense cols : 34
 AA' NZ     : 1.249e+05
 Factor NZ  : 4.835e+05 (roughly 30 MB of memory)
 Factor Ops : 1.011e+07 (less than 1 second per iteration)
 Threads    : 23

                  Objective                Residual
Iter       Primal          Dual         Primal    Dual     Compl     Time
   0   8.90155109e+06 -5.69676426e+08  1.55e+01 1.24e+03  3.09e+04     1s
   1   2.12606656e+06 -2.17899891e+08  3.35e+00 1.44e-08  6.32e+03     1s
   2   6.45024184e+05 -1.75849732e+08  7.38e-01 1.12e-08  2.90e+03     1s
   3   3.73655256e+05 -3.43769456e+07  2.25e-01 1.97e-09  5.29e+02     1s
   4   2.38827624e+05 -7.43090859e+06  1.76e-02 2.89e-10  9.75e+01     1s
   5   1.64327781e+05 -1.86468257e+06  4.96e-03 8.05e-11  2.52e+01     2s
   6   7.05157229e+04 -3.99392207e+05  1.27e-03 2.55e-11  5.80e+00     2s
   7   3.09418804e+04 -8.66739273e+04  4.44e-04 1.64e-11  1.45e+00     3s
   8   1.67117740e+04 -3.87311826e+04  2.01e-04 6.81e-12  6.83e-01     3s
   9   1.19736989e+04 -2.42534977e+04  1.29e-04 5.15e-12  4.46e-01     3s
  10   5.88302418e+03 -7.17606020e+03  4.55e-05 3.08e-12  1.61e-01     4s
  11   4.00048494e+03 -2.61279161e+03  2.54e-05 2.88e-12  8.14e-02     4s
  12   2.90287989e+03 -4.23044538e+02  1.50e-05 3.75e-12  4.09e-02     4s
  13   2.12519865e+03  1.55655378e+02  8.16e-06 3.80e-12  2.42e-02     5s
  14   1.69179918e+03  6.69413315e+02  4.48e-06 3.88e-12  1.26e-02     6s
  15   1.45828302e+03  8.87625960e+02  2.56e-06 3.83e-12  7.02e-03     6s
  16   1.30918589e+03  1.00939721e+03  1.34e-06 3.56e-12  3.69e-03     7s
  17   1.25160636e+03  1.05355914e+03  8.86e-07 3.85e-12  2.44e-03     7s
  18   1.21261702e+03  1.07916299e+03  5.79e-07 3.91e-12  1.64e-03     7s
  19   1.18035486e+03  1.09893819e+03  3.27e-07 4.05e-12  1.00e-03     8s
  20   1.16102247e+03  1.11570687e+03  1.76e-07 4.62e-12  5.58e-04     8s
  21   1.15250025e+03  1.12976785e+03  1.12e-07 4.26e-12  2.80e-04     8s
  22   1.14215157e+03  1.13516415e+03  3.65e-08 8.13e-12  8.60e-05     9s
  23   1.13867382e+03  1.13643738e+03  1.17e-08 6.37e-12  2.75e-05     9s
  24   1.13760797e+03  1.13675285e+03  4.36e-09 4.20e-12  1.05e-05    10s
  25   1.13727578e+03  1.13690275e+03  3.47e-09 2.44e-12  4.59e-06    10s
  26   1.13708723e+03  1.13694658e+03  1.15e-08 4.27e-12  1.73e-06    11s
  27   1.13698525e+03  1.13695970e+03  1.53e-08 5.36e-12  3.14e-07    12s
  28   1.13696671e+03  1.13696566e+03  1.90e-08 6.15e-12  1.29e-08    13s
  29   1.13696642e+03  1.13696626e+03  2.70e-09 4.74e-12  1.90e-09    13s
  30   1.13696634e+03  1.13696634e+03  6.10e-10 3.83e-12  4.38e-11    14s

Barrier solved model in 30 iterations and 13.85 seconds (0.94 work units)
Optimal objective 1.13696634e+03


Root crossover log...

    5985 DPushes remaining with DInf 6.1187135e-06                14s
       0 DPushes remaining with DInf 0.0000000e+00                14s

    1273 PPushes remaining with PInf 0.0000000e+00                14s
       0 PPushes remaining with PInf 0.0000000e+00                14s

  Push phase complete: Pinf 0.0000000e+00, Dinf 3.2463115e-11     14s


Root simplex log...

Iteration    Objective       Primal Inf.    Dual Inf.      Time
    2407    1.1369663e+03   0.000000e+00   0.000000e+00     14s
    2407    1.1369663e+03   0.000000e+00   0.000000e+00     14s

Root relaxation: objective 1.136966e+03, 2407 iterations, 13.95 seconds (0.74 work units)

    Nodes    |    Current Node    |     Objective Bounds      |     Work
 Expl Unexpl |  Obj  Depth IntInf | Incumbent    BestBd   Gap | It/Node Time

     0     0 1136.96634    0   22          - 1136.96634      -     -   14s
H    0     0                    6004.8695199 1136.96634  81.1%     -   16s
H    0     0                    2793.1898305 1136.96634  59.3%     -   16s
     0     0 1161.94246    0   23 2793.18983 1161.94246  58.4%     -   18s
H    0     0                    1367.7954680 1161.94246  15.0%     -   19s
     0     0 1162.15912    0   23 1367.79547 1162.15912  15.0%     -   19s
     0     0 1164.29824    0   22 1367.79547 1164.29824  14.9%     -   20s
     0     0 1164.29824    0   22 1367.79547 1164.29824  14.9%     -   20s
     0     0 1164.29824    0   22 1367.79547 1164.29824  14.9%     -   21s
     0     0 1164.29824    0   22 1367.79547 1164.29824  14.9%     -   21s
     0     0 1164.29824    0   22 1367.79547 1164.29824  14.9%     -   21s
     0     0 1165.97474    0   21 1367.79547 1165.97474  14.8%     -   23s
H    0     0                    1363.1249189 1165.97474  14.5%     -   24s
     0     0 1166.01825    0   21 1363.12492 1166.01825  14.5%     -   24s
     0     0 1166.04901    0   20 1363.12492 1166.04901  14.5%     -   25s
H    0     0                    1305.6942372 1166.04901  10.7%     -  138s
     0     2 1166.04901    0   20 1305.69424 1166.04901  10.7%     -  139s
     1     4 1203.04446    1   19 1305.69424 1166.19196  10.7%  3107  141s
     7    10     cutoff    3      1305.69424 1202.62543  7.89%  1698  145s
    25    30 1233.54632    5   16 1305.69424 1217.25657  6.77%  1401  150s
    69    48 1238.87776    7   15 1305.69424 1223.63658  6.28%   858  159s
    93    56 1246.45241    8   13 1305.69424 1223.63658  6.28%   848  161s
   201    94 1271.59106   10   11 1305.69424 1243.72923  4.75%   643  165s
   314    87 1280.29486   11    9 1305.69424 1243.72923  4.75%   527  172s
   412   109 1299.42121   10   11 1305.69424 1243.72923  4.75%   497  175s
   662    60 1295.35804   13    8 1305.69424 1254.87067  3.89%   393  182s
   849    30 1300.21961   14    7 1305.69424 1259.92438  3.51%   351  185s
* 1041     0              21    1305.4144060 1299.85614  0.43%   314  189s

Cutting planes:
  Gomory: 1
  Implied bound: 176
  MIR: 299
  Flow cover: 4
  Relax-and-lift: 2

Explored 1062 nodes (333635 simplex iterations) in 189.32 seconds (174.46 work units)
Thread count was 24 (of 32 available processors)

Solution count 6: 1305.41 1305.69 1363.12 ... 6004.87

Optimal solution found (tolerance 1.00e-02)
Best objective 1.305414405988e+03, best bound 1.305414405988e+03, gap 0.0000%

Gurobi 11.0.3 (win64) logging started Tue Sep  3 16:00:07 2024

Set parameter LogFile to value "C:\Users\ealvarezq\Desktop\D.Representative_days_based_on_RES_and_Demand\IEEE118_mod2_ByStages_nc60/openStarNet_IEEE118_mod2_ByStages_nc60.log"
Set parameter Method to value 2
Set parameter MIPFocus to value 1
Set parameter Presolve to value 2
Set parameter RINS to value 100
Set parameter MIPGap to value 0.01
Set parameter Threads to value 24
Set parameter TimeLimit to value 259200
Set parameter IterationLimit to value 760000000
Gurobi Optimizer version 11.0.3 build v11.0.3rc0 (win64 - Windows Server 2019.0 (17763.2))

CPU model: AMD Ryzen Threadripper PRO 3955WX 16-Cores, instruction set [SSE2|AVX|AVX2]
Thread count: 16 physical cores, 32 logical processors, using up to 24 threads

Optimize a model with 85263 rows, 63097 columns and 211584 nonzeros
Model fingerprint: 0x6cc33980
Coefficient statistics:
  Matrix range     [2e-03, 9e+03]
  Objective range  [1e+00, 1e+00]
  Bounds range     [1e-04, 3e+00]
  RHS range        [1e-04, 3e+02]
Presolve removed 63603 rows and 27814 columns
Presolve time: 0.16s
Presolved: 21660 rows, 35411 columns, 85528 nonzeros

Ordering time: 0.01s

Barrier statistics:
 AA' NZ     : 7.287e+04
 Factor NZ  : 2.876e+05 (roughly 25 MB of memory)
 Factor Ops : 4.207e+06 (less than 1 second per iteration)
 Threads    : 24

                  Objective                Residual
Iter       Primal          Dual         Primal    Dual     Compl     Time
   0   1.45751527e+07 -2.78319430e+08  8.88e+01 9.11e+01  1.38e+04     0s
   1   1.91943148e+06 -8.13101986e+07  1.03e+01 1.48e-12  1.96e+03     1s
   2   4.47196793e+05 -1.54067080e+07  1.53e+00 1.25e-12  2.89e+02     1s
   3   1.73535166e+05 -2.45534731e+06  4.94e-02 1.36e-12  3.53e+01     1s
   4   6.51084389e+04 -4.70823201e+05  4.98e-03 4.32e-12  6.96e+00     1s
   5   1.98212513e+04 -7.02745698e+04  9.95e-04 1.14e-12  1.17e+00     1s
   6   1.01850032e+04 -2.12167696e+04  3.36e-04 2.77e-13  4.06e-01     1s
   7   7.09924965e+03 -9.48070663e+03  2.04e-04 2.76e-13  2.14e-01     1s
   8   4.92683854e+03 -4.11294241e+03  1.19e-04 2.41e-13  1.17e-01     1s
   9   3.28577778e+03 -1.27164252e+03  5.98e-05 2.89e-13  5.89e-02     1s
  10   2.20213768e+03 -7.69500764e+01  2.47e-05 2.92e-13  2.95e-02     1s
  11   1.81768520e+03  7.73914687e+02  1.36e-05 2.12e-13  1.35e-02     1s
  12   1.61853715e+03  1.01317284e+03  8.16e-06 2.23e-13  7.82e-03     1s
  13   1.48640493e+03  1.13873422e+03  4.61e-06 2.24e-13  4.49e-03     1s
  14   1.42352330e+03  1.19629086e+03  2.93e-06 3.38e-13  2.94e-03     1s
  15   1.37512336e+03  1.24493877e+03  1.70e-06 2.74e-13  1.68e-03     1s
  16   1.33537522e+03  1.27730555e+03  6.88e-07 2.42e-13  7.50e-04     1s
  17   1.32192791e+03  1.29287110e+03  3.72e-07 3.11e-13  3.75e-04     1s
  18   1.31321531e+03  1.30092260e+03  1.70e-07 2.50e-13  1.59e-04     1s
  19   1.30894727e+03  1.30281044e+03  7.50e-08 3.37e-13  7.93e-05     1s
  20   1.30609179e+03  1.30461574e+03  1.30e-08 3.37e-13  1.91e-05     1s
  21   1.30544273e+03  1.30537703e+03  1.96e-10 3.50e-13  8.49e-07     1s
  22   1.30541489e+03  1.30541340e+03  4.02e-10 5.98e-13  1.92e-08     1s
  23   1.30541441e+03  1.30541440e+03  3.18e-10 4.02e-13  3.18e-11     1s

Barrier solved model in 23 iterations and 0.95 seconds (0.36 work units)
Optimal objective 1.30541441e+03

Crossover log...

    6251 DPushes remaining with DInf 0.0000000e+00                 1s
       0 DPushes remaining with DInf 0.0000000e+00                 1s

     525 PPushes remaining with PInf 0.0000000e+00                 1s
       0 PPushes remaining with PInf 0.0000000e+00                 1s

  Push phase complete: Pinf 0.0000000e+00, Dinf 3.6817139e-12      1s

Iteration    Objective       Primal Inf.    Dual Inf.      Time
    1602    1.3054144e+03   0.000000e+00   0.000000e+00      1s

Solved in 1602 iterations and 1.14 seconds (0.43 work units)
Optimal objective  1.305414406e+03
